NAME: 6x6 Grid TSP
TYPE: TSP
DIMENSION: 36
EDGE_WEIGHT_TYPE: EUC_2D
NODE_COORD_SECTION
1  0  0
2  1  0
3  2  0
4  3  0
5  4  0
6  5  0
7  0  1
8  1  1
9  2  1
10  3  1
11  4  1
12  5  1
13  0  2
14  1  2
15  2  2
16  3  2
17  4  2
18  5  2
19  0  3
20  1  3
21  2  3
22  3  3
23  4  3
24  5  3
25  0  4
26  1  4
27  2  4
28  3  4
29  4  4
30  5  4
31  0  5
32  1  5
33  2  5
34  3  5
35  4  5
36  5  5
EOF